&control
   prefix = 'cri3'
   pseudo_dir = '.'
   verbosity = 'high'
/&end
&system
   assume_isolated = '2D'
   ecutwfc = 90
   ibrav = 4
   celldm(1) = 12.976749
   celldm(3) =  1.926523
   nat = 8
   ntyp = 2
   nspin = 2
   starting_magnetization(1) = 1
   starting_magnetization(2) = 0
   occupations = 'smearing'
   degauss = 0.005
/&end

&electrons
   conv_thr = 1e-13
   diago_thr_init=5.0e-6
   diago_full_acc = .true.
/&end

ATOMIC_SPECIES
   Cr    51.99          Cr_Alejandro.upf
   I     126.9          I_Alejandro.upf
ATOMIC_POSITIONS { crystal }
  Cr  0.6666666666666667  0.3333333333333335    0.0000000000
  Cr  0.3333333333333333  0.6666666666666666    0.0000000000
  I   0.6493550000000000  0.6493550000000000    0.1182282501
  I   0.0000000000000000  0.350645              0.1182282501
  I   0.3506449999999999  0.0                   0.1182282501
  I   0.350645            0.350645              -0.1182282501
  I   0.6493550000000001  0.0                   -0.1182282501
  I   0.0000000000000000  0.6493550000000000    -0.1182282501
K_POINTS { automatic }
  8 8 1 0 0 0
